db/data/3152725485207002138415571287782305026272.z3.out
sat
-------------------
543.038567445
